c "671155.clq"
p edge 100 1344
e 1 17
e 1 18
e 1 20
e 1 21
e 1 22
e 1 23
e 1 25
e 1 28
e 1 31
e 1 39
e 1 42
e 1 65
e 1 71
e 1 90
e 1 91
e 2 17
e 2 18
e 2 19
e 2 20
e 2 21
e 2 22
e 2 26
e 2 27
e 2 29
e 2 31
e 2 32
e 2 33
e 2 36
e 2 39
e 2 41
e 2 47
e 2 49
e 2 52
e 2 55
e 2 57
e 2 62
e 2 66
e 2 68
e 2 77
e 2 78
e 2 80
e 2 85
e 2 92
e 2 94
e 3 17
e 3 18
e 3 19
e 3 20
e 3 21
e 3 22
e 3 24
e 3 26
e 3 28
e 3 29
e 3 34
e 3 35
e 3 37
e 3 40
e 3 43
e 3 45
e 3 46
e 3 47
e 3 53
e 3 54
e 3 55
e 3 56
e 3 59
e 3 65
e 3 67
e 3 68
e 3 69
e 3 70
e 3 71
e 3 81
e 3 85
e 3 88
e 3 91
e 3 99
e 4 17
e 4 18
e 4 19
e 4 21
e 4 22
e 4 23
e 4 24
e 4 26
e 4 27
e 4 34
e 4 37
e 4 38
e 4 46
e 4 48
e 4 49
e 4 72
e 4 79
e 4 91
e 4 94
e 4 98
e 5 17
e 5 18
e 5 19
e 5 21
e 5 23
e 5 26
e 5 28
e 5 29
e 5 30
e 5 32
e 5 35
e 5 38
e 5 40
e 5 44
e 5 45
e 5 46
e 5 50
e 5 51
e 5 64
e 5 74
e 5 84
e 5 87
e 5 88
e 5 93
e 5 96
e 5 98
e 5 99
e 6 17
e 6 18
e 6 19
e 6 20
e 6 21
e 6 23
e 6 25
e 6 26
e 6 28
e 6 29
e 6 30
e 6 32
e 6 34
e 6 40
e 6 41
e 6 42
e 6 47
e 6 48
e 6 49
e 6 58
e 6 62
e 6 75
e 6 79
e 6 81
e 6 83
e 6 91
e 6 95
e 6 96
e 6 99
e 7 17
e 7 18
e 7 19
e 7 20
e 7 21
e 7 22
e 7 24
e 7 25
e 7 26
e 7 27
e 7 29
e 7 33
e 7 34
e 7 35
e 7 38
e 7 43
e 7 45
e 7 48
e 7 67
e 7 72
e 7 76
e 7 83
e 7 90
e 7 94
e 8 17
e 8 18
e 8 19
e 8 20
e 8 21
e 8 23
e 8 25
e 8 27
e 8 28
e 8 31
e 8 35
e 8 41
e 8 42
e 8 43
e 8 47
e 8 51
e 8 58
e 8 61
e 8 67
e 8 76
e 8 78
e 8 83
e 8 88
e 8 89
e 8 94
e 8 97
e 9 17
e 9 18
e 9 19
e 9 20
e 9 21
e 9 22
e 9 23
e 9 24
e 9 25
e 9 30
e 9 32
e 9 33
e 9 37
e 9 39
e 9 40
e 9 44
e 9 45
e 9 47
e 9 52
e 9 55
e 9 56
e 9 57
e 9 63
e 9 64
e 9 66
e 9 71
e 9 83
e 9 85
e 10 17
e 10 18
e 10 19
e 10 20
e 10 22
e 10 24
e 10 27
e 10 28
e 10 30
e 10 34
e 10 35
e 10 36
e 10 38
e 10 41
e 10 43
e 10 44
e 10 48
e 10 54
e 10 55
e 10 81
e 10 89
e 10 92
e 10 98
e 11 17
e 11 18
e 11 19
e 11 20
e 11 21
e 11 22
e 11 24
e 11 25
e 11 29
e 11 36
e 11 39
e 11 43
e 11 46
e 11 47
e 11 49
e 11 56
e 11 58
e 11 60
e 11 61
e 11 66
e 11 83
e 11 84
e 11 86
e 11 93
e 12 17
e 12 18
e 12 19
e 12 20
e 12 23
e 12 27
e 12 31
e 12 33
e 12 34
e 12 35
e 12 41
e 12 42
e 12 43
e 12 44
e 12 50
e 12 52
e 12 53
e 12 54
e 12 57
e 12 58
e 12 59
e 12 63
e 12 65
e 12 69
e 12 70
e 12 71
e 12 76
e 12 77
e 12 81
e 12 83
e 12 89
e 13 17
e 13 18
e 13 19
e 13 20
e 13 22
e 13 24
e 13 29
e 13 30
e 13 31
e 13 37
e 13 43
e 13 44
e 13 56
e 13 58
e 13 60
e 13 61
e 13 63
e 13 75
e 13 83
e 13 88
e 13 92
e 13 96
e 13 97
e 14 17
e 14 18
e 14 19
e 14 20
e 14 21
e 14 22
e 14 23
e 14 24
e 14 25
e 14 26
e 14 27
e 14 29
e 14 31
e 14 32
e 14 34
e 14 35
e 14 36
e 14 38
e 14 45
e 14 48
e 14 56
e 14 61
e 14 62
e 14 63
e 14 67
e 14 69
e 14 70
e 14 71
e 14 72
e 14 78
e 14 79
e 14 82
e 14 88
e 14 94
e 15 17
e 15 20
e 15 22
e 15 23
e 15 25
e 15 31
e 15 32
e 15 36
e 15 37
e 15 41
e 15 42
e 15 59
e 15 60
e 15 74
e 15 75
e 15 76
e 16 17
e 16 18
e 16 19
e 16 21
e 16 23
e 16 24
e 16 25
e 16 26
e 16 27
e 16 28
e 16 35
e 16 37
e 16 40
e 16 41
e 16 46
e 16 47
e 16 48
e 16 50
e 16 51
e 16 54
e 16 55
e 16 60
e 16 63
e 16 66
e 16 68
e 16 70
e 16 71
e 16 74
e 16 80
e 16 81
e 16 87
e 16 92
e 17 18
e 17 19
e 17 20
e 17 21
e 17 22
e 17 23
e 17 24
e 17 25
e 17 26
e 17 28
e 17 30
e 17 32
e 17 33
e 17 34
e 17 36
e 17 37
e 17 38
e 17 39
e 17 40
e 17 41
e 17 42
e 17 43
e 17 44
e 17 46
e 17 49
e 17 51
e 17 52
e 17 53
e 17 59
e 17 60
e 17 64
e 17 65
e 17 66
e 17 67
e 17 69
e 17 73
e 17 75
e 17 77
e 17 83
e 17 91
e 17 92
e 17 93
e 17 100
e 18 19
e 18 20
e 18 21
e 18 22
e 18 23
e 18 24
e 18 25
e 18 26
e 18 27
e 18 28
e 18 29
e 18 30
e 18 31
e 18 32
e 18 33
e 18 34
e 18 35
e 18 36
e 18 37
e 18 38
e 18 39
e 18 40
e 18 41
e 18 42
e 18 43
e 18 47
e 18 48
e 18 50
e 18 53
e 18 58
e 18 59
e 18 60
e 18 61
e 18 62
e 18 64
e 18 70
e 18 74
e 18 77
e 18 80
e 18 83
e 18 85
e 18 87
e 18 89
e 18 90
e 18 95
e 18 96
e 18 98
e 18 99
e 19 20
e 19 21
e 19 22
e 19 23
e 19 24
e 19 25
e 19 26
e 19 27
e 19 28
e 19 29
e 19 32
e 19 37
e 19 39
e 19 42
e 19 44
e 19 45
e 19 46
e 19 49
e 19 50
e 19 55
e 19 57
e 19 59
e 19 60
e 19 66
e 19 67
e 19 68
e 19 70
e 19 71
e 19 72
e 19 73
e 19 78
e 19 80
e 19 81
e 19 86
e 19 90
e 19 93
e 19 95
e 19 99
e 20 21
e 20 22
e 20 23
e 20 24
e 20 25
e 20 26
e 20 27
e 20 28
e 20 29
e 20 30
e 20 31
e 20 32
e 20 33
e 20 34
e 20 35
e 20 36
e 20 37
e 20 38
e 20 41
e 20 49
e 20 50
e 20 52
e 20 54
e 20 55
e 20 58
e 20 59
e 20 61
e 20 63
e 20 65
e 20 66
e 20 67
e 20 70
e 20 72
e 20 74
e 20 76
e 20 84
e 20 85
e 20 95
e 21 22
e 21 23
e 21 24
e 21 26
e 21 27
e 21 30
e 21 31
e 21 32
e 21 33
e 21 35
e 21 37
e 21 38
e 21 39
e 21 44
e 21 46
e 21 48
e 21 50
e 21 52
e 21 53
e 21 56
e 21 64
e 21 65
e 21 66
e 21 67
e 21 68
e 21 70
e 21 71
e 21 73
e 21 75
e 21 77
e 21 79
e 21 82
e 21 85
e 21 86
e 21 87
e 21 90
e 21 93
e 21 95
e 21 97
e 22 23
e 22 24
e 22 25
e 22 27
e 22 30
e 22 31
e 22 32
e 22 35
e 22 36
e 22 38
e 22 43
e 22 44
e 22 51
e 22 52
e 22 54
e 22 55
e 22 58
e 22 65
e 22 68
e 22 72
e 22 74
e 22 79
e 22 80
e 22 81
e 22 85
e 22 86
e 22 91
e 22 95
e 22 96
e 22 100
e 23 24
e 23 25
e 23 26
e 23 27
e 23 28
e 23 31
e 23 32
e 23 33
e 23 37
e 23 39
e 23 40
e 23 42
e 23 43
e 23 45
e 23 47
e 23 48
e 23 50
e 23 52
e 23 56
e 23 57
e 23 58
e 23 59
e 23 60
e 23 65
e 23 68
e 23 71
e 23 73
e 23 77
e 23 94
e 23 95
e 23 100
e 24 25
e 24 26
e 24 27
e 24 28
e 24 29
e 24 30
e 24 34
e 24 36
e 24 40
e 24 42
e 24 43
e 24 44
e 24 46
e 24 49
e 24 51
e 24 52
e 24 54
e 24 57
e 24 58
e 24 60
e 24 62
e 24 63
e 24 68
e 24 69
e 24 72
e 24 74
e 24 76
e 24 79
e 24 84
e 24 90
e 24 92
e 24 95
e 24 96
e 24 97
e 25 26
e 25 28
e 25 29
e 25 30
e 25 31
e 25 33
e 25 34
e 25 36
e 25 42
e 25 45
e 25 46
e 25 47
e 25 48
e 25 50
e 25 52
e 25 59
e 25 60
e 25 61
e 25 74
e 25 75
e 25 80
e 25 85
e 25 89
e 25 92
e 25 97
e 25 98
e 26 27
e 26 28
e 26 29
e 26 30
e 26 31
e 26 33
e 26 34
e 26 35
e 26 36
e 26 38
e 26 40
e 26 44
e 26 47
e 26 48
e 26 53
e 26 57
e 26 58
e 26 60
e 26 63
e 26 69
e 26 70
e 26 71
e 26 78
e 26 82
e 26 83
e 26 91
e 26 95
e 26 100
e 27 28
e 27 29
e 27 30
e 27 33
e 27 34
e 27 35
e 27 36
e 27 41
e 27 42
e 27 43
e 27 45
e 27 47
e 27 49
e 27 51
e 27 56
e 27 59
e 27 62
e 27 63
e 27 68
e 27 70
e 27 72
e 27 73
e 27 75
e 27 80
e 27 87
e 27 94
e 27 95
e 27 97
e 27 99
e 28 29
e 28 30
e 28 32
e 28 33
e 28 34
e 28 37
e 28 38
e 28 39
e 28 40
e 28 44
e 28 46
e 28 51
e 28 56
e 28 59
e 28 64
e 28 65
e 28 67
e 28 71
e 28 73
e 28 78
e 28 80
e 28 91
e 28 93
e 29 30
e 29 31
e 29 32
e 29 33
e 29 34
e 29 35
e 29 36
e 29 38
e 29 41
e 29 43
e 29 44
e 29 45
e 29 48
e 29 49
e 29 50
e 29 51
e 29 56
e 29 61
e 29 68
e 29 73
e 29 77
e 29 79
e 29 80
e 29 81
e 29 83
e 29 84
e 29 85
e 29 88
e 29 89
e 29 90
e 29 96
e 30 31
e 30 33
e 30 35
e 30 36
e 30 38
e 30 39
e 30 40
e 30 41
e 30 43
e 30 46
e 30 51
e 30 52
e 30 56
e 30 57
e 30 59
e 30 60
e 30 69
e 30 70
e 30 72
e 30 73
e 30 75
e 30 79
e 30 84
e 30 87
e 30 88
e 30 93
e 30 97
e 30 98
e 31 32
e 31 36
e 31 37
e 31 40
e 31 45
e 31 49
e 31 50
e 31 51
e 31 52
e 31 57
e 31 62
e 31 64
e 31 69
e 31 72
e 31 73
e 31 78
e 31 79
e 31 80
e 31 84
e 31 88
e 31 93
e 31 100
e 32 33
e 32 37
e 32 40
e 32 43
e 32 44
e 32 51
e 32 53
e 32 54
e 32 55
e 32 58
e 32 62
e 32 67
e 32 72
e 32 73
e 32 76
e 32 86
e 32 89
e 32 97
e 32 98
e 32 100
e 33 39
e 33 41
e 33 45
e 33 46
e 33 48
e 33 49
e 33 50
e 33 55
e 33 59
e 33 64
e 33 66
e 33 67
e 33 86
e 33 98
e 34 38
e 34 42
e 34 44
e 34 51
e 34 60
e 34 61
e 34 70
e 34 77
e 34 79
e 34 87
e 34 89
e 34 92
e 34 97
e 35 37
e 35 39
e 35 41
e 35 42
e 35 45
e 35 46
e 35 49
e 35 53
e 35 56
e 35 57
e 35 58
e 35 65
e 35 68
e 35 71
e 35 72
e 35 75
e 35 84
e 35 85
e 35 88
e 35 95
e 35 97
e 35 99
e 36 39
e 36 40
e 36 42
e 36 47
e 36 57
e 36 61
e 36 64
e 36 65
e 36 73
e 36 74
e 36 79
e 36 80
e 36 82
e 36 87
e 36 92
e 36 95
e 36 96
e 37 38
e 37 39
e 37 47
e 37 49
e 37 50
e 37 53
e 37 55
e 37 62
e 37 65
e 37 82
e 37 83
e 37 91
e 37 97
e 37 98
e 38 39
e 38 45
e 38 52
e 38 57
e 38 68
e 38 74
e 38 84
e 38 100
e 39 40
e 39 45
e 39 46
e 39 49
e 39 53
e 39 54
e 39 57
e 39 61
e 39 63
e 39 65
e 39 66
e 39 68
e 39 71
e 39 74
e 39 75
e 39 76
e 39 86
e 39 89
e 39 94
e 39 99
e 39 100
e 40 41
e 40 44
e 40 45
e 40 47
e 40 51
e 40 53
e 40 54
e 40 59
e 40 76
e 40 78
e 40 87
e 40 91
e 40 93
e 40 97
e 41 42
e 41 47
e 41 50
e 41 52
e 41 53
e 41 54
e 41 55
e 41 64
e 41 66
e 41 69
e 41 77
e 41 84
e 41 91
e 42 46
e 42 48
e 42 54
e 42 57
e 42 58
e 42 87
e 42 92
e 42 93
e 42 94
e 42 100
e 43 57
e 43 62
e 43 63
e 43 64
e 43 66
e 43 67
e 43 73
e 43 74
e 43 75
e 43 80
e 43 82
e 43 84
e 43 89
e 43 91
e 43 92
e 43 100
e 44 48
e 44 51
e 44 53
e 44 56
e 44 60
e 44 69
e 44 73
e 44 79
e 44 81
e 44 84
e 45 52
e 45 72
e 45 77
e 45 80
e 45 82
e 45 89
e 45 90
e 45 93
e 46 48
e 46 51
e 46 53
e 46 54
e 46 55
e 46 69
e 46 72
e 46 88
e 46 89
e 46 91
e 46 97
e 46 98
e 47 53
e 47 55
e 47 59
e 47 60
e 47 62
e 47 63
e 47 65
e 47 68
e 47 70
e 47 71
e 47 73
e 47 76
e 47 78
e 47 86
e 47 90
e 47 92
e 47 94
e 47 100
e 48 49
e 48 50
e 48 56
e 48 60
e 48 62
e 48 74
e 48 77
e 48 78
e 48 86
e 48 87
e 48 90
e 48 97
e 49 50
e 49 52
e 49 56
e 49 61
e 49 64
e 49 77
e 49 78
e 49 81
e 49 85
e 49 87
e 49 88
e 49 89
e 49 92
e 49 93
e 49 99
e 50 54
e 50 55
e 50 56
e 50 66
e 50 67
e 50 76
e 50 77
e 50 78
e 50 82
e 50 84
e 50 90
e 50 91
e 50 94
e 51 54
e 51 61
e 51 65
e 51 69
e 51 77
e 51 81
e 51 87
e 51 95
e 51 96
e 52 53
e 52 54
e 52 59
e 52 62
e 52 63
e 52 64
e 52 66
e 52 69
e 52 78
e 52 79
e 52 90
e 53 55
e 53 61
e 53 62
e 53 81
e 53 87
e 53 89
e 53 98
e 53 100
e 54 58
e 54 61
e 54 74
e 54 86
e 54 98
e 55 63
e 55 71
e 55 79
e 55 87
e 56 57
e 56 58
e 56 72
e 56 74
e 56 75
e 56 84
e 56 93
e 57 63
e 57 64
e 57 88
e 57 99
e 58 65
e 58 66
e 58 67
e 58 70
e 58 79
e 58 81
e 58 96
e 59 62
e 59 77
e 60 61
e 60 62
e 60 64
e 60 66
e 60 68
e 60 69
e 60 72
e 60 73
e 60 75
e 60 85
e 61 64
e 61 75
e 61 76
e 61 82
e 61 86
e 61 89
e 62 63
e 62 70
e 62 73
e 62 80
e 62 82
e 62 83
e 62 88
e 62 94
e 62 96
e 63 67
e 63 69
e 63 74
e 63 78
e 63 82
e 63 85
e 63 89
e 63 99
e 63 100
e 64 67
e 64 70
e 64 76
e 64 98
e 65 75
e 65 78
e 65 81
e 65 94
e 65 99
e 66 75
e 67 68
e 67 84
e 67 88
e 67 90
e 67 97
e 68 69
e 68 71
e 68 76
e 68 92
e 68 93
e 69 86
e 70 78
e 70 94
e 71 76
e 71 77
e 71 82
e 71 83
e 71 90
e 72 80
e 72 81
e 72 83
e 72 86
e 72 95
e 72 96
e 72 98
e 72 99
e 74 76
e 74 82
e 74 85
e 74 86
e 74 93
e 74 96
e 75 82
e 75 94
e 75 96
e 76 85
e 76 86
e 77 80
e 77 81
e 77 87
e 77 100
e 78 79
e 78 83
e 78 84
e 78 94
e 78 95
e 78 97
e 79 82
e 80 82
e 80 91
e 80 98
e 80 99
e 81 90
e 82 88
e 83 99
e 84 85
e 84 86
e 84 96
e 85 88
e 85 90
e 85 91
e 85 93
e 85 99
e 87 96
e 88 98
e 89 92
e 89 95
e 90 92
e 92 100
e 93 100
